27452 30116
23711 43471
21160 58412
56621 12660
18152 36261
4750 5417
43130 49638
54567 34052
41503 10741
7911 34041
54836 20989
59106 31344
3255 39865
61180 28788
18917 57232
45715 25180
17704 31124
15028 56422
11640 38237
4606 46853
65082 40156
276 42730
25466 3882
52312 18114
13099 14301
12894 26034
14463 42256
41093 63927
23156 31613
30414 64169
61983 39448
32525 49318
39754 33441
25410 30804
64048 10864
352 27503
46773 51873
33864 49527
